(declare-const a0 Int)
(declare-const a0_1 Int)
(declare-const a0_2 Int)
(declare-const a0_3 Int)
(declare-const a1 Int)
(declare-const a1_1 Int)
(declare-const a1_2 Int)
(declare-const a1_3 Int)
(declare-const d0 Bool)
(declare-const d0_1 Bool)
(declare-const d0_2 Bool)
(declare-const d0_3 Bool)
(declare-const d1 Bool)
(declare-const d1_1 Bool)
(declare-const d1_2 Bool)
(declare-const d1_3 Bool)
(declare-const s1 Int)
(declare-const s1_1 Int)
(declare-const s1_2 Int)
(declare-const s1_3 Int)
(declare-const s2 Int)
(declare-const s2_1 Int)
(declare-const s2_2 Int)
(declare-const s2_3 Int)
(declare-const s3 Int)
(declare-const s3_1 Int)
(declare-const s3_2 Int)
(declare-const s3_3 Int)
(assert (>= a0 0))
(assert (>= a0_1 0))
(assert (>= a0_2 0))
(assert (>= a0_3 0))
(assert (>= a1 0))
(assert (>= a1_1 0))
(assert (>= a1_2 0))
(assert (>= a1_3 0))
(assert (>= s1 0))
(assert (>= s1_1 0))
(assert (>= s1_2 0))
(assert (>= s1_3 0))
(assert (>= s2 0))
(assert (>= s2_1 0))
(assert (>= s2_2 0))
(assert (>= s2_3 0))
(assert (>= s3 0))
(assert (>= s3_1 0))
(assert (>= s3_2 0))
(assert (>= s3_3 0))
(assert
 (not
  (=>
   (and (<= a0 4) (<= a1 4) (<= a0_1 4) (<= a1_1 4) (<= a0_2 4) (<= a0_3 4)
    (<= a1_2 4) (<= a1_3 4)
    (= s1_1 (+ s1 (ite (= a0 1) 1 0) (ite (= a1 1) 1 0)))
    (= s3_1 (+ s3 (ite (= a0 3) 1 0) (ite (= a1 3) 1 0)))
    (= s2_1 (+ s2 (ite (= a0 2) 1 0) (ite (= a1 2) 1 0)))
    (=> (= a0 1) (and (= a0_1 (ite d0 4 0)) (iff d0_1 d0)))
    (=> (= a0 2) (and (= a0_1 (ite d0 3 0)) (iff d0_1 d0)))
    (=> (= a0 3) (and (= a0_1 (ite d0 4 2)) (iff d0_1 d0)))
    (=> (= a0 0) (and (or (= a0_1 1) (= a0_1 2)) d0_1))
    (=> (and (= a0 0) (= a0_1 1)) (<= s2 s1))
    (=> (and (= a0 0) (= a0_1 2)) (<= s1 s2))
    (=> (= a0 4) (and (or (= a0_1 1) (= a0_1 3)) (not d0_1)))
    (=> (and (= a0 4) (= a0_1 1)) (<= s3 s1))
    (=> (and (= a0 4) (= a0_1 3)) (<= s1 s3))
    (=> (= a1 1) (and (= a1_1 (ite d1 4 0)) (iff d1_1 d1)))
    (=> (= a1 2) (and (= a1_1 (ite d1 3 0)) (iff d1_1 d1)))
    (=> (= a1 3) (and (= a1_1 (ite d1 4 2)) (iff d1_1 d1)))
    (=> (= a1 0) (and (or (= a1_1 1) (= a1_1 2)) d1_1))
    (=> (and (= a1 0) (= a1_1 1)) (<= s2 s1))
    (=> (and (= a1 0) (= a1_1 2)) (<= s1 s2))
    (=> (= a1 4) (and (or (= a1_1 1) (= a1_1 3)) (not d1_1)))
    (=> (and (= a1 4) (= a1_1 1)) (<= s3 s1))
    (=> (and (= a1 4) (= a1_1 3)) (<= s1 s3))
    (= s1_2 (+ s1_1 (ite (= a0_1 1) 1 0) (ite (= a1_1 1) 1 0)))
    (= s3_2 (+ s3_1 (ite (= a0_1 3) 1 0) (ite (= a1_1 3) 1 0)))
    (= s2_2 (+ s2_1 (ite (= a0_1 2) 1 0) (ite (= a1_1 2) 1 0)))
    (=> (= a0_1 1) (and (= a0_2 (ite d0_1 4 0)) (iff d0_2 d0_1)))
    (=> (= a0_1 2) (and (= a0_2 (ite d0_1 3 0)) (iff d0_2 d0_1)))
    (=> (= a0_1 3) (and (= a0_2 (ite d0_1 4 2)) (iff d0_2 d0_1)))
    (=> (= a0_1 0) (and (or (= a0_2 1) (= a0_2 2)) d0_2))
    (=> (and (= a0_1 0) (= a0_2 1)) (<= s2_1 s1_1))
    (=> (and (= a0_1 0) (= a0_2 2)) (<= s1_1 s2_1))
    (=> (= a0_1 4) (and (or (= a0_2 1) (= a0_2 3)) (not d0_2)))
    (=> (and (= a0_1 4) (= a0_2 1)) (<= s3_1 s1_1))
    (=> (and (= a0_1 4) (= a0_2 3)) (<= s1_1 s3_1))
    (=> (= a1_1 1) (and (= a1_2 (ite d1_1 4 0)) (iff d1_2 d1_1)))
    (=> (= a1_1 2) (and (= a1_2 (ite d1_1 3 0)) (iff d1_2 d1_1)))
    (=> (= a1_1 3) (and (= a1_2 (ite d1_1 4 2)) (iff d1_2 d1_1)))
    (=> (= a1_1 0) (and (or (= a1_2 1) (= a1_2 2)) d1_2))
    (=> (and (= a1_1 0) (= a1_2 1)) (<= s2_1 s1_1))
    (=> (and (= a1_1 0) (= a1_2 2)) (<= s1_1 s2_1))
    (=> (= a1_1 4) (and (or (= a1_2 1) (= a1_2 3)) (not d1_2)))
    (=> (and (= a1_1 4) (= a1_2 1)) (<= s3_1 s1_1))
    (=> (and (= a1_1 4) (= a1_2 3)) (<= s1_1 s3_1))
    (= s1_3 (+ s1_2 (ite (= a0_2 1) 1 0) (ite (= a1_2 1) 1 0)))
    (= s3_3 (+ s3_2 (ite (= a0_2 3) 1 0) (ite (= a1_2 3) 1 0)))
    (= s2_3 (+ s2_2 (ite (= a0_2 2) 1 0) (ite (= a1_2 2) 1 0)))
    (=> (= a0_2 1) (and (= a0_3 (ite d0_2 4 0)) (iff d0_3 d0_2)))
    (=> (= a0_2 2) (and (= a0_3 (ite d0_2 3 0)) (iff d0_3 d0_2)))
    (=> (= a0_2 3) (and (= a0_3 (ite d0_2 4 2)) (iff d0_3 d0_2)))
    (=> (= a0_2 0) (and (or (= a0_3 1) (= a0_3 2)) d0_3))
    (=> (and (= a0_2 0) (= a0_3 1)) (<= s2_2 s1_2))
    (=> (and (= a0_2 0) (= a0_3 2)) (<= s1_2 s2_2))
    (=> (= a0_2 4) (and (or (= a0_3 1) (= a0_3 3)) (not d0_3)))
    (=> (and (= a0_2 4) (= a0_3 1)) (<= s3_2 s1_2))
    (=> (and (= a0_2 4) (= a0_3 3)) (<= s1_2 s3_2))
    (=> (= a1_2 1) (and (= a1_3 (ite d1_2 4 0)) (iff d1_3 d1_2)))
    (=> (= a1_2 2) (and (= a1_3 (ite d1_2 3 0)) (iff d1_3 d1_2)))
    (=> (= a1_2 3) (and (= a1_3 (ite d1_2 4 2)) (iff d1_3 d1_2)))
    (=> (= a1_2 0) (and (or (= a1_3 1) (= a1_3 2)) d1_3))
    (=> (and (= a1_2 0) (= a1_3 1)) (<= s2_2 s1_2))
    (=> (and (= a1_2 0) (= a1_3 2)) (<= s1_2 s2_2))
    (=> (= a1_2 4) (and (or (= a1_3 1) (= a1_3 3)) (not d1_3)))
    (=> (and (= a1_2 4) (= a1_3 1)) (<= s3_2 s1_2))
    (=> (and (= a1_2 4) (= a1_3 3)) (<= s1_2 s3_2))
    (> s1 (ite (<= s2 s3) s3 s2)) (> s1_1 (ite (<= s2_1 s3_1) s3_1 s2_1))
    (> s1_2 (ite (<= s2_2 s3_2) s3_2 s2_2)))
   (> s1_3 (ite (<= s2_3 s3_3) s3_3 s2_3)))))
(check-sat)
